48	12	4	45	
9	10	10	10

0	0	0	0	0	0	4	1	2	3	4
1	8	7	8	7	1	1	6
2	9	1	3	7	5	3	7	9	10
3	3	2	6	6	5	1	5
4	3	9	2	8	10	1	9
5	4	8	7	9	10	1	8
6	8	5	6	3	4	2	7	8
7	9	5	1	7	4	1	11
8	1	2	5	2	5	1	11
9	7	10	9	6	1	1	11
10	5	4	4	1	3	1	11
11	0	0	0	0	0	0
